CMPL model generation - running

CMPL version: 1.11.0
Authors: Thomas Schleiff, Mike Steglich
Distributed under the GPLv3 

create model instance ...
write model instance ...
CMPL model generation - finished

Solver - running


Welcome to IBM(R) ILOG(R) CPLEX(R) Interactive Optimizer 12.7.1.0
  with Simplex, Mixed Integer & Barrier Optimizers
5725-A06 5725-A29 5724-Y48 5724-Y49 5724-Y54 5724-Y55 5655-Y21
Copyright IBM Corp. 1988, 2017.  All Rights Reserved.

Type 'help' for a list of available commands.
Type 'help' followed by a command name for more
information on commands.

CPLEX> Specified objective sense: MINIMIZE
Selected objective  name:  line[1]
Selected RHS        name:  RHS
Selected bound      name:  BOUND
Problem '/tmp/cmpl.T24927.mps' read.
Read time = 0.06 sec. (8.25 ticks)
CPLEX> CPXPARAM_Read_APIEncoding                        "UTF-8"
Tried aggregator 3 times.
MIP Presolve eliminated 18391 rows and 29020 columns.
MIP Presolve modified 606 coefficients.
Aggregator did 1416 substitutions.
Reduced MIP has 2548 rows, 4157 columns, and 12167 nonzeros.
Reduced MIP has 3989 binaries, 0 generals, 0 SOSs, and 0 indicators.
Presolve time = 0.06 sec. (45.23 ticks)
Found incumbent of value 3752.165717 after 0.13 sec. (91.60 ticks)
Probing time = 0.01 sec. (2.65 ticks)
Tried aggregator 1 time.
MIP Presolve eliminated 0 rows and 49 columns.
Reduced MIP has 2548 rows, 4108 columns, and 12069 nonzeros.
Reduced MIP has 4108 binaries, 0 generals, 0 SOSs, and 0 indicators.
Presolve time = 0.02 sec. (11.28 ticks)
Probing time = 0.01 sec. (2.82 ticks)
Clique table members: 3539.
MIP emphasis: balance optimality and feasibility.
MIP search method: dynamic search.
Parallel mode: none, using 1 thread.
Root relaxation solution time = 0.02 sec. (19.54 ticks)

        Nodes                                         Cuts/
   Node  Left     Objective  IInf  Best Integer    Best Bound    ItCnt     Gap

*     0+    0                         3752.1657        0.0000           100.00%
*     0     0      integral     0     1720.0103     1720.0103     1299    0.00%
Elapsed time = 0.21 sec. (136.23 ticks, tree = 0.00 MB, solutions = 2)

Root node processing (before b&c):
  Real time             =    0.21 sec. (137.51 ticks)
Sequential b&c:
  Real time             =    0.00 sec. (0.00 ticks)
                          ------------
Total (root+branch&cut) =    0.21 sec. (137.51 ticks)

Solution pool: 2 solutions saved.

MIP - Integer optimal solution:  Objective =  1.7200102870e+03
Solution time =    0.21 sec.  Iterations = 1299  Nodes = 0
Deterministic time = 137.61 ticks  (650.77 ticks/sec)

CPLEX> Incumbent solution written to file '/tmp/cmpl.T24927.gsol'.
CPLEX> 
CMPL: Time used for model generation: 0 seconds
CMPL: Time used for solving the model: 1 seconds


Solution written to ASCII file: results/output_generated_conf_1/2015-12-07-4/fair-nonlinear.sol

Solver - finished
